50
120 120
1 96 399
2 93 730
3 93 193
4 93 589
5 91 68
6 91 734
7 89 9
8 88 566
9 82 870
10 81 547
11 76 995
12 75 919
13 73 367
14 71 111
15 69 378
16 68 207
17 68 62
18 68 755
19 67 188
20 65 981
21 64 505
22 61 983
23 59 423
24 59 959
25 58 20
26 58 585
27 57 207
28 56 898
29 55 346
30 54 878
31 53 705
32 51 544
33 50 308
34 45 223
35 44 188
36 43 450
37 42 771
38 41 550
39 38 231
40 36 888
41 35 768
42 29 794
43 27 73
44 26 649
45 25 949
46 23 762
47 20 434
48 15 620
49 14 489
50 12 3
